Instance: Data/Instances_txt/inst_20_30_2.txt
SetUpTime: 0.5802569389343262

Gurobi 10.0.1 (mac64[x86]) logging started Mo 14 Aug 18:26:04 2023

Set parameter LogFile to value "Output/MILP_RELAXED_inst_20_30_2_2023-08-14_09-45-28.txt"

Gurobi 10.0.1 (mac64[x86]) logging started Mo 14 Aug 18:26:04 2023

Set parameter LogFile to value "Output/MILP_RELAXED_inst_20_30_2_2023-08-14_09-45-28.txt"
Gurobi Optimizer version 10.0.1 build v10.0.1rc0 (mac64[x86])

CPU model: Intel(R) Core(TM) i5-1038NG7 CPU @ 2.00GHz
Thread count: 4 physical cores, 8 logical processors, using up to 8 threads

Optimize a model with 41 rows, 2219 columns and 14673 nonzeros
Model fingerprint: 0xfe2ed4ed
Coefficient statistics:
  Matrix range     [1e+00, 1e+00]
  Objective range  [2e+00, 2e+03]
  Bounds range     [1e+00, 1e+00]
  RHS range        [1e+00, 1e+00]
Presolve removed 2 rows and 0 columns
Presolve time: 0.00s
Presolved: 39 rows, 2219 columns, 14212 nonzeros

Iteration    Objective       Primal Inf.    Dual Inf.      Time
       0    9.3000000e+01   2.200000e+01   0.000000e+00      0s
     152    1.9820000e+03   0.000000e+00   0.000000e+00      0s

Solved in 152 iterations and 0.01 seconds (0.01 work units)
Optimal objective  1.982000000e+03

User-callback calls 210, time in user-callback 0.00 sec

=========================

OUTPUT STATISTICS
Relaxed: true
Time since start: 1.0366120338439941
SetUpTime: 0.5802569389343262
Objective value LB: 1982.0
Objective value UB: 2070.0
Solving time LB: 0.05824398994445801
Solving time UB: 0.09827399253845215
Gap: 0.04251207729468599
